100
128
54
11
31
40
2
19
3
13
32
12
38
25
38
2
1
8
30
53
46
16
50
34
62
3
45
54
35
5
55
27
19
1
41
21
21
22
23
37
61
50
50
28
44
54
56
50
38
21
30
24
27
4
1
63
25
22
32
40
56
59
32
54
5
48
57
46
23
26
38
1
37
1
51
48
3
27
45
26
6
45
62
2
60
47
28
2
33
7
53
6
5
32
2
34
1
4
3
62
1
10